870250
0,69,73,31,59,30,12,62,67,35,71,54,92,61,48,5,74,68,40,17,55,9,76,29,95,20,19,8,32,56,46,94,24,77,50,78,28,39,93,25,16,11,18,58,89,70,33,45,27,10,22,97,53,64,23,42,51,21,72,83,91,38,13,6,65,3,80,85,44,86,75,82,14,15,60,57,81,66,26,1,2,63,4,84,88,7,52,43,90,96,41,34,49,87,37,98,79,36,47,0